param n := 2;

param m := 2;

param K := 500;

param a :=
1 	 0.176196
2 	 0.332064
;
 param A :=
[1, *, *]:  1	2	:=
1	-0.738006	-0.310527	
2	0.618981	0.880215	

[2, *, *]:  1	2	:=
1	0.164028	0.689469	
2	0.757664	0.810785	
;